# Solution for model GasLib-40
# Objective value = 5.2970907893993271e+01
loadshed[innode_1] 0
loadshed[innode_2] 0
loadshed[innode_3] 0
loadshed[innode_4] 0
loadshed[innode_5] 0
loadshed[innode_6] 0
loadshed[innode_7] 0
loadshed[innode_8] 0
loadshed[source_1] -1.4260785881096893e-01
loadshed[source_2] 2.1190346814136674e-02
loadshed[source_3] 4.5648497242873465e-01
loadshed[sink_1] 3.7496206002126720e-01
loadshed[sink_2] 0
loadshed[sink_3] 0
loadshed[sink_4] 0
loadshed[sink_5] 0
loadshed[sink_6] 0
loadshed[sink_7] 0
loadshed[sink_8] 0
loadshed[sink_9] 0
loadshed[sink_10] 0
loadshed[sink_11] 0
loadshed[sink_12] 1
loadshed[sink_13] 0
loadshed[sink_14] 0
loadshed[sink_15] 0
loadshed[sink_16] 0
loadshed[sink_17] 0
loadshed[sink_18] 0
loadshed[sink_19] 0
loadshed[sink_20] 0
loadshed[sink_21] 1
loadshed[sink_22] 0
loadshed[sink_23] 0
loadshed[sink_24] 0.864023390821633
loadshed[sink_25] 0
loadshed[sink_26] 0
loadshed[sink_27] 0
loadshed[sink_28] 0
loadshed[sink_29] 0
flow[source_1,sink_3] 1.8063519379049796e+02
flow[innode_1,sink_16] 1.6354166666666970e+01
flow[innode_6,sink_13] 2.8554724981542023e+01
flow[sink_13,sink_14] 1.2200558314875355e+01
flow[sink_14,sink_10] -4.1536083517913118e+00
flow[sink_25,sink_26] 1.1238198659831350e+02
flow[sink_26,sink_9] 0
flow[sink_9,sink_18] -1.6354166666669244e+01
flow[sink_26,sink_4] 9.6027819931646832e+01
flow[sink_4,sink_20] -1.4476964225056619e+01
flow[sink_18,sink_6] -3.2708333333335915e+01
flow[sink_25,innode_8] -1.4792686045716158e+02
flow[sink_6,sink_7] -7.5638641310071421e+01
flow[sink_6,sink_22] 2.6576141310068863e+01
flow[sink_7,sink_24] 2.2237841292712073e+00
flow[sink_22,sink_1] 1.0221974643402193e+01
flow[sink_24,sink_21] 0
flow[sink_21,sink_12] 0
flow[sink_7,sink_5] -94.2165921060093
flow[sink_5,sink_17] -1.1057075877267597e+02
flow[sink_17,sink_4] -94.1506174900368
flow[sink_17,sink_8] -3.2774307949305836e+01
flow[sink_3,sink_23] 16.3541666666697
flow[sink_8,sink_20] -4.9128474615972507e+01
flow[sink_25,sink_20] 7.9959605507695812e+01
flow[sink_25,sink_15] -8.9323623297055590e+01
flow[sink_15,sink_29] -5.9354904095670911e+01
flow[sink_29,sink_28] 1.6354166666667879e+01
flow[sink_29,sink_2] 6.2677052534718015e+01
flow[sink_2,sink_15] 4.6322885868051351e+01
flow[sink_29,innode_7] -1.5474028996372346e+02
flow[innode_4,sink_19] 8.5924441685137879e+01
flow[sink_19,innode_3] 0
flow[innode_4,innode_5] 0
flow[sink_27,innode_5] 0
flow[sink_27,sink_19] -1.6354166666679703e+01
flow[sink_10,sink_11] 3.2708333333333641e+01
flow[sink_10,innode_2] -5.3216108351791490e+01
flow[sink_10,innode_3] 0
flow[innode_6,sink_25] -2.8554724981542023e+01
flow[sink_11,innode_1] 1.6354166666666970e+01
flow[sink_19,innode_2] 5.3216108351791490e+01
flow[source_3,innode_4] 8.5924441685137879e+01
flow[source_2,innode_7] 1.5474028996372346e+02
flow[sink_3,innode_8] 1.4792686045716158e+02
pressure[innode_1] 7.4567839506888220e+01
pressure[innode_2] 7.7532231930609811e+01
pressure[innode_3] 7.7532231930609811e+01
pressure[innode_4] 81.01325
pressure[innode_5] 81.01325
pressure[innode_6] 7.4702332336972219e+01
pressure[innode_7] 81.01325
pressure[innode_8] 8.0409455552303555e+01
pressure[source_1] 81.01325
pressure[source_2] 81.01325
pressure[source_3] 81.01325
pressure[sink_1] 1.0132500000000002e+00
pressure[sink_2] 7.5286872961811383e+01
pressure[sink_3] 8.0409455552303555e+01
pressure[sink_4] 5.4578109461931305e+01
pressure[sink_5] 4.2743261013362428e+01
pressure[sink_6] 2.5209788813574026e+00
pressure[sink_7] 3.55931713131172
pressure[sink_8] 5.2216643098012369e+01
pressure[sink_9] 1.0558265020511648e+00
pressure[sink_10] 7.4719540814491765e+01
pressure[sink_11] 7.4567839506888220e+01
pressure[sink_12] 1.01325
pressure[sink_13] 7.4544914910086831e+01
pressure[sink_14] 7.4523080971724582e+01
pressure[sink_15] 7.5135638948851820e+01
pressure[sink_16] 7.3546189672070540e+01
pressure[sink_17] 5.0979983313526766e+01
pressure[sink_18] 1.6475689958509192e+00
pressure[sink_19] 7.7532231930609811e+01
pressure[sink_20] 5.5640206871691269e+01
pressure[sink_21] 1.01325
pressure[sink_22] 1.6781460733505069e+00
pressure[sink_23] 8.0244737540643769e+01
pressure[sink_24] 1.01325
pressure[sink_25] 7.4702332336972219e+01
pressure[sink_26] 6.6787335019133735e+01
pressure[sink_27] 7.7181101933466309e+01
pressure[sink_28] 7.6579271164242712e+01
pressure[sink_29] 7.6874553437859888e+01
interdiction[source_1,sink_3] 0
interdiction[innode_1,sink_16] 0
interdiction[innode_6,sink_13] 0
interdiction[sink_13,sink_14] 0
interdiction[sink_14,sink_10] 0
interdiction[sink_25,sink_26] 0
interdiction[sink_26,sink_9] 1
interdiction[sink_9,sink_18] 0
interdiction[sink_26,sink_4] 0
interdiction[sink_4,sink_20] 0
interdiction[sink_18,sink_6] 0
interdiction[sink_25,innode_8] 0
interdiction[sink_6,sink_7] 0
interdiction[sink_6,sink_22] 0
interdiction[sink_7,sink_24] 0
interdiction[sink_22,sink_1] 0
interdiction[sink_24,sink_21] 0
interdiction[sink_21,sink_12] 0
interdiction[sink_7,sink_5] 0
interdiction[sink_5,sink_17] 0
interdiction[sink_17,sink_4] 0
interdiction[sink_17,sink_8] 0
interdiction[sink_3,sink_23] 0
interdiction[sink_8,sink_20] 0
interdiction[sink_25,sink_20] 0
interdiction[sink_25,sink_15] 0
interdiction[sink_15,sink_29] 0
interdiction[sink_29,sink_28] 0
interdiction[sink_29,sink_2] 0
interdiction[sink_2,sink_15] 0
interdiction[sink_29,innode_7] 0
interdiction[innode_4,sink_19] 0
interdiction[sink_19,innode_3] 0
interdiction[innode_4,innode_5] 0
interdiction[sink_27,innode_5] 1
interdiction[sink_27,sink_19] 0
interdiction[sink_10,sink_11] 0
interdiction[sink_10,innode_2] 0
interdiction[sink_10,innode_3] 1
interdiction[innode_6,sink_25] 0
interdiction[sink_11,innode_1] 0
interdiction[sink_19,innode_2] 0
interdiction[source_3,innode_4] 0
interdiction[source_2,innode_7] 0
interdiction[sink_3,innode_8] 0
WCcheckFlow[source_1,sink_3] 39
WCcheckFlow[innode_1,sink_16] 1
WCcheckFlow[innode_6,sink_13] 13
WCcheckFlow[sink_13,sink_14] 12
WCcheckFlow[sink_14,sink_10] 11
WCcheckFlow[sink_25,sink_26] 15
WCcheckFlow[sink_26,sink_9] 0
WCcheckFlow[sink_9,sink_18] -1
WCcheckFlow[sink_26,sink_4] 14
WCcheckFlow[sink_4,sink_20] 1
WCcheckFlow[sink_18,sink_6] -2
WCcheckFlow[sink_25,innode_8] -36
WCcheckFlow[sink_6,sink_7] -5
WCcheckFlow[sink_6,sink_22] 2
WCcheckFlow[sink_7,sink_24] 3
WCcheckFlow[sink_22,sink_1] 1
WCcheckFlow[sink_24,sink_21] 2
WCcheckFlow[sink_21,sink_12] 1
WCcheckFlow[sink_7,sink_5] -9
WCcheckFlow[sink_5,sink_17] -10
WCcheckFlow[sink_17,sink_4] -12
WCcheckFlow[sink_17,sink_8] 1
WCcheckFlow[sink_3,sink_23] 1
WCcheckFlow[sink_8,sink_20] 0
WCcheckFlow[sink_25,sink_20] 0
WCcheckFlow[sink_25,sink_15] 6
WCcheckFlow[sink_15,sink_29] 5
WCcheckFlow[sink_29,sink_28] 1
WCcheckFlow[sink_29,sink_2] 1
WCcheckFlow[sink_2,sink_15] 0
WCcheckFlow[sink_29,innode_7] 2
WCcheckFlow[innode_4,sink_19] -3
WCcheckFlow[sink_19,innode_3] 1
WCcheckFlow[innode_4,innode_5] 1
WCcheckFlow[sink_27,innode_5] 0
WCcheckFlow[sink_27,sink_19] -1
WCcheckFlow[sink_10,sink_11] 3
WCcheckFlow[sink_10,innode_2] 7
WCcheckFlow[sink_10,innode_3] 0
WCcheckFlow[innode_6,sink_25] -14
WCcheckFlow[sink_11,innode_1] 2
WCcheckFlow[sink_19,innode_2] -6
WCcheckFlow[source_3,innode_4] -1
WCcheckFlow[source_2,innode_7] -1
WCcheckFlow[sink_3,innode_8] 37
